(declare-const |x':43:49:55| Int)
(declare-const havoc Int)
(declare-const |phi_tmp___1:13:16:18:52:58| Int)
(declare-const |phi_tmp___1:17:19:53:59| Int)
(declare-const |havoc:10:40:51:57| Int)
(declare-const |tmp___0':44:50:56| Int)
(declare-const |K:47:48:54| Int)
(declare-const tmp___0 Int)
(assert (and (<= (- havoc) 0) (<= (+ havoc -50) 0)
               (or (not (<= (- |K:47:48:54|) 0))
                     (<= (+ |x':43:49:55| (- |K:47:48:54|) (- havoc)) 0))
               (or (not (<= (- |K:47:48:54|) 0))
                     (<= (+ (- |x':43:49:55|) (- |K:47:48:54|) havoc) 0))
               (or (and (= |K:47:48:54| 0)
                          (= (+ (- |tmp___0':44:50:56|) tmp___0) 0)
                          (= (+ (- |x':43:49:55|) havoc) 0))
                     (and (<= (+ (- |K:47:48:54|) 1) 0) (<= (- havoc) 0)
                            (<= (- |x':43:49:55|) 0)))
               (<= (- |K:47:48:54|) 0) (<= (- |x':43:49:55|) 0)
               (= |havoc:10:40:51:57| 0)
               (or (and (<= (- |x':43:49:55|) 0)
                          (or (and (< (+ (- |x':43:49:55|) 50) 0)
                                     (= (- |phi_tmp___1:13:16:18:52:58|) 0))
                                (and (<= (+ |x':43:49:55| -50) 0)
                                       (= (+ (- |phi_tmp___1:13:16:18:52:58|)
                                               1) 0)))
                          (= (+ (- |phi_tmp___1:17:19:53:59|)
                                  |phi_tmp___1:13:16:18:52:58|) 0))
                     (and (< |x':43:49:55| 0)
                            (= (- |phi_tmp___1:17:19:53:59|) 0)))
               (= |phi_tmp___1:17:19:53:59| 0)))
(check-sat)
